&BANDS
  prefix='silicon', outdir='./tmp', filband='silicon.bands.dat'
/
