 &PROJWFC
   DeltaE  = 0.05
   Emax    = 15.0
   Emin    = -10.0
   degauss = 0.02
   filproj = 'silicon_pdos'
   outdir  = './tmp'
   prefix  = 'silicon'
 /


