 &BANDS
   filband = 'silicon.bands.dat'
   outdir  = './tmp'
   prefix  = 'silicon'
 /


