 &DOS
   DeltaE = 0.02
   Emax   = 20.0
   Emin   = -15.0
   fildos = 'silicon.dos'
   outdir = './tmp'
   prefix = 'silicon'
 /


