 &CONTROL
   calculation = 'nscf'
   outdir      = './tmp'
   prefix      = 'silicon'
   pseudo_dir  = '/Users/pollob/qe_macm4_build/pp'
 /

 &SYSTEM
   celldm(1)   = 10.26
   degauss     = 0.02
   ecutwfc     = 30.0
   ibrav       = 2
   nat         = 2
   nbnd        = 16
   ntyp        = 1
   occupations = 'fixed'
   smearing    = 'mp'
 /

 &ELECTRONS
   conv_thr    = 1e-8
   mixing_beta = 0.7
 /

ATOMIC_SPECIES 
    Si  28.085  Si.pbe-n-rrkjus_psl.1.0.0.UPF

ATOMIC_POSITIONS crystal
  Si       0.000000000000   0.000000000000   0.000000000000
  Si       0.250000000000   0.250000000000   0.250000000000

K_POINTS automatic
  12   12   12   0   0   0 



